\ Model QCP
\ LP format - for model browsing. Use MPS format to capture full model detail.
Minimize
  z + y
Subject To
 Cut_0: z + [ ] >= 1200
 Cut_1: z + [ 6 y ^2 ] >= 2322
 Cut_2: z + [ 5.454545454545454 y ^2 ] >= 2258.181818181818
 Cut_3: z + [ ] >= 1200
 Cut_4: z + [ ] >= 1200
 Cut_5: z + [ ] >= 1200
 Cut_6: z + [ ] >= 1200
 Cut_7: z + [ ] >= 1200
 Cut_8: z + [ ] >= 1200
 Cut_9: z + [ ] >= 1200
Bounds
 1200 <= z <= 1620
 10.81665382639197 <= y <= 13.92838827718412
End
